<?xml version = "1.0" standalone="yes"?>
<!-- This file has been generated by DOcplex version 2.23.222  -->
<CPLEXSolution version="1.0">
 <header
   problemName="CVRP"
   objectiveValue="12520.2"
  />
 <variables>
  <variable name="x_0_2" index="1" value="1.00000"/>
  <variable name="x_0_3" index="2" value="1.00000"/>
  <variable name="x_0_4" index="3" value="1.00000"/>
  <variable name="x_0_5" index="4" value="1.00000"/>
  <variable name="x_0_12" index="11" value="1.00000"/>
  <variable name="x_0_13" index="12" value="1.00000"/>
  <variable name="x_0_14" index="13" value="1.00000"/>
  <variable name="x_0_15" index="14" value="1.00000"/>
  <variable name="x_0_16" index="15" value="1.00000"/>
  <variable name="x_0_17" index="16" value="1.00000"/>
  <variable name="x_1_0" index="17" value="1.00000"/>
  <variable name="x_2_9" index="42" value="1.00000"/>
  <variable name="x_3_10" index="60" value="1.00000"/>
  <variable name="x_4_8" index="75" value="1.00000"/>
  <variable name="x_5_0" index="85" value="1.00000"/>
  <variable name="x_6_0" index="102" value="1.00000"/>
  <variable name="x_7_6" index="125" value="1.00000"/>
  <variable name="x_8_0" index="136" value="1.00000"/>
  <variable name="x_9_11" index="163" value="1.00000"/>
  <variable name="x_10_0" index="170" value="1.00000"/>
  <variable name="x_11_0" index="187" value="1.00000"/>
  <variable name="x_12_0" index="204" value="1.00000"/>
  <variable name="x_13_1" index="222" value="1.00000"/>
  <variable name="x_14_0" index="238" value="1.00000"/>
  <variable name="x_15_0" index="255" value="1.00000"/>
  <variable name="x_16_0" index="272" value="1.00000"/>
  <variable name="x_17_7" index="296" value="1.00000"/>
  <variable name="u_1" index="306" value="45.00000"/>
  <variable name="u_2" index="307" value="8.00000"/>
  <variable name="u_3" index="308" value="47.00000"/>
  <variable name="u_4" index="309" value="32.00000"/>
  <variable name="u_5" index="310" value="44.00000"/>
  <variable name="u_6" index="311" value="61.00000"/>
  <variable name="u_7" index="312" value="34.00000"/>
  <variable name="u_8" index="313" value="63.00000"/>
  <variable name="u_9" index="314" value="54.00000"/>
  <variable name="u_10" index="315" value="61.00000"/>
  <variable name="u_11" index="316" value="60.00000"/>
  <variable name="u_12" index="317" value="52.00000"/>
  <variable name="u_13" index="318" value="3.00000"/>
  <variable name="u_14" index="319" value="63.00000"/>
  <variable name="u_15" index="320" value="47.00000"/>
  <variable name="u_16" index="321" value="63.00000"/>
  <variable name="u_17" index="322" value="17.00000"/>
 </variables>
</CPLEXSolution>
